41
100
70	1
68	2
67	2
65	5
64	2
63	3
62	2
60	2
59	4
58	4
57	2
56	1
54	3
53	3
52	3
51	4
49	2
48	1
47	4
46	3
44	2
43	3
41	3
40	1
38	2
37	2
36	4
35	2
34	1
33	1
31	1
30	3
29	3
28	2
27	1
26	4
25	2
24	2
23	3
22	1
20	4
